coords = array2d(1..41, 1..2, [6, 468, 817, 602, 953, 481, 159, 839, 6, 536,
    388, 144, 984, 78, 692, 573, 306, 709, 258, 470, 146, 589, 74,
    855, 896, 77, 798, 676, 801, 192, 201, 988, 108, 849, 16, 213,
    391, 728, 33, 180, 449, 23, 747, 105, 551, 349, 710, 472, 88, 57,
    433, 952, 97, 952, 485, 999, 87, 695, 94, 153, 31, 410, 629, 813,
    731, 442, 992, 654, 65, 282, 437, 657, 617, 219, 860, 322, 469,
    408, 251, 521, 145, 277]);

n = 41;

